4 
5  12 27 38 52 
6  05 19 34 47 
7  02 17 32 47 
8  02 17 32 47 
9  02 17 32 47 
10  01 16 31 46 
11  01 16 31 46 
12  01 16 31 46 
13  01 16 31 46 
14  01 16 31 46 
15  01 16 31 46 
16  01 16 31 46 
17  01 16 31 46 
18  02 17 32 47 
19  02 18 33 48 
20  03 16 27 42 57 
21  12 27 42 57 
22  11 25 37 52 
23  07 
0 
